32      4       
14      14      13      16      
0       0       0       0       0       1       2       
10      0       9       0       14      1       3       
2       0       4       1       0       1       4       
8       0       5       0       5       2       5       8       
1       5       0       0       1       1       6       
10      8       0       0       8       1       7       
5       0       8       1       0       1       9       
1       0       1       13      0       1       9       
9       8       0       0       1       2       10      15      
8       0       0       4       9       1       11      
4       9       6       0       0       2       12      25      
3       0       6       5       0       1       13      
3       4       0       1       0       1       14      
5       0       6       1       0       1       16      
1       12      0       2       0       1       16      
9       0       0       7       1       1       17      
3       0       8       0       16      2       18      23      
1       1       0       0       6       2       19      20      
9       1       3       0       0       1       21      
6       3       0       12      0       1       21      
9       10      0       0       8       1       22      
7       4       0       0       1       1       24      
5       0       1       0       15      1       24      
5       3       0       1       0       2       26      27      
8       7       0       9       0       2       26      27      
9       0       1       0       6       1       28      
3       0       13      6       0       1       28      
6       1       0       0       4       1       29      
4       0       0       12      1       1       30      
7       0       7       3       0       1       31      
5       8       6       0       0       1       32      
0       0       0       0       0       0       
